SDVRP instances/custom_instances/p02_27_split0.vrp
NAME:p02_27_split
BEST_KNOWN: 0
COMMENT: 0
DIMENSION: 409
CAPACITY: 140
EDGE_WEIGHT_FORMAT: FUNCTION
EDGE_WEIGHT_TYPE: EXACT_2D
NODE_COORD_SECTION
1 0.00000 0.00000
2 19 26
3 19 26
4 19 26
5 19 26
6 19 26
7 19 26
8 19 26
9 10 27
10 10 27
11 10 27
12 10 27
13 10 27
14 10 27
15 10 27
16 10 27
17 46 27
18 46 27
19 46 27
20 46 27
21 -45 7
22 -45 7
23 -45 7
24 -45 7
25 -45 7
26 -45 7
27 -41 -27
28 -41 -27
29 -41 -27
30 -41 -27
31 -41 -27
32 -41 -27
33 -41 -27
34 13 36
35 -25 42
36 -25 42
37 -25 42
38 -25 42
39 -25 42
40 6 16
41 6 16
42 6 16
43 6 16
44 6 16
45 6 16
46 6 16
47 6 16
48 -49 -47
49 -49 -47
50 -49 -47
51 -49 -47
52 -49 -47
53 -49 -47
54 -49 -47
55 -49 -47
56 -49 -47
57 46 -32
58 46 -32
59 -12 49
60 -12 49
61 -12 49
62 -12 49
63 19 -1
64 19 -1
65 19 -1
66 19 -1
67 19 -1
68 19 -1
69 19 -1
70 19 -1
71 -21 7
72 -21 7
73 -21 7
74 -21 7
75 -21 7
76 -21 7
77 -21 7
78 -21 7
79 -31 -19
80 -31 -19
81 -31 -19
82 -31 -19
83 -31 -19
84 -12 -15
85 -12 -15
86 -12 -15
87 -12 -15
88 -12 -15
89 19 -32
90 19 -32
91 19 -32
92 19 -32
93 19 -32
94 19 -32
95 -26 -6
96 -26 -6
97 -26 -6
98 -26 -6
99 -26 -6
100 -26 -6
101 -44 16
102 -44 16
103 -44 16
104 -44 16
105 3 33
106 3 33
107 3 33
108 3 33
109 -9 -1
110 -9 -1
111 -4 -36
112 -4 -36
113 -4 -36
114 -4 -36
115 -4 -36
116 -4 -36
117 -4 -36
118 -4 -36
119 -13 -48
120 -13 -48
121 -13 -48
122 -13 -48
123 -13 -48
124 -13 -48
125 -13 -48
126 21 43
127 21 43
128 21 43
129 21 43
130 21 43
131 21 43
132 21 43
133 21 43
134 21 43
135 5 30
136 5 30
137 5 30
138 31 20
139 31 20
140 31 20
141 31 20
142 31 20
143 31 20
144 31 20
145 31 20
146 -33 -5
147 -33 -5
148 -48 -12
149 -48 -12
150 -48 -12
151 -48 -12
152 -48 -12
153 -48 -12
154 -48 -12
155 38 26
156 38 26
157 38 26
158 38 26
159 38 26
160 -49 -43
161 -49 -43
162 -49 -43
163 -49 -43
164 -49 -43
165 13 9
166 13 9
167 13 9
168 13 9
169 13 9
170 13 9
171 13 9
172 -37 2
173 -37 2
174 -37 2
175 -37 2
176 4 -42
177 4 -42
178 4 -42
179 4 -42
180 4 -42
181 22 -24
182 22 -24
183 22 -24
184 22 -24
185 22 -24
186 22 -24
187 49 36
188 49 36
189 49 36
190 49 36
191 49 36
192 28 -42
193 28 -42
194 28 -42
195 28 -42
196 28 -42
197 28 -42
198 -8 25
199 -8 25
200 -8 25
201 2 23
202 2 23
203 9 28
204 9 28
205 9 28
206 9 28
207 9 28
208 9 28
209 9 28
210 42 10
211 42 10
212 42 10
213 42 10
214 42 10
215 42 10
216 42 10
217 42 10
218 -45 -36
219 -45 -36
220 -45 -36
221 -45 -36
222 -1 41
223 -1 41
224 15 19
225 15 19
226 15 19
227 21 43
228 21 43
229 21 43
230 21 43
231 21 43
232 21 43
233 21 43
234 21 43
235 0 25
236 0 25
237 0 25
238 0 25
239 0 25
240 49 19
241 49 19
242 13 29
243 13 29
244 13 29
245 13 29
246 13 29
247 13 29
248 13 29
249 13 29
250 43 50
251 43 50
252 43 50
253 43 50
254 43 50
255 43 50
256 42 -4
257 42 -4
258 42 -4
259 42 -4
260 42 -4
261 42 -4
262 42 -4
263 42 -4
264 16 5
265 16 5
266 16 5
267 16 5
268 16 5
269 16 5
270 16 5
271 16 5
272 -21 -39
273 -21 -39
274 -21 -39
275 -21 -39
276 -21 -39
277 -21 -39
278 16 36
279 16 36
280 16 36
281 16 36
282 -41 -28
283 -41 -28
284 -41 -28
285 -41 -28
286 -41 -28
287 7 42
288 7 42
289 7 42
290 7 42
291 7 42
292 7 42
293 7 42
294 7 42
295 -22 9
296 -22 9
297 -22 9
298 -13 -14
299 -13 -14
300 -13 -14
301 -13 -14
302 -13 -14
303 -31 25
304 -31 25
305 -31 25
306 -31 25
307 -31 25
308 -34 -36
309 -34 -36
310 -34 -36
311 -34 -36
312 -34 -36
313 -34 -36
314 1 40
315 1 40
316 1 40
317 32 47
318 32 47
319 32 47
320 32 47
321 32 47
322 32 47
323 -14 -38
324 -14 -38
325 -14 -38
326 -14 -38
327 -14 -38
328 -45 -22
329 -45 -22
330 -45 -22
331 -45 -22
332 -45 -22
333 -45 -22
334 -45 -22
335 -9 -47
336 -9 -47
337 -9 -47
338 -9 -47
339 34 11
340 34 11
341 34 11
342 34 11
343 34 11
344 34 11
345 34 11
346 34 11
347 34 11
348 49 16
349 49 16
350 49 16
351 49 16
352 49 16
353 19 -11
354 19 -11
355 19 -11
356 19 -11
357 19 -11
358 21 -19
359 21 -19
360 21 -19
361 21 -19
362 21 -19
363 21 -19
364 21 -19
365 2 -6
366 2 -6
367 2 -6
368 2 -6
369 2 -6
370 2 -6
371 33 17
372 33 17
373 33 17
374 33 17
375 33 17
376 33 17
377 50 18
378 50 18
379 50 18
380 50 18
381 50 18
382 31 25
383 31 25
384 31 25
385 -42 39
386 -42 39
387 -42 39
388 -4 -40
389 -38 -26
390 -38 -26
391 -38 -26
392 -38 -26
393 -38 -26
394 -38 -26
395 -38 -26
396 -25 35
397 -25 35
398 -25 35
399 -25 35
400 -25 35
401 -25 35
402 -25 35
403 -25 35
404 29 -41
405 29 -41
406 29 -41
407 29 -41
408 29 -41
409 29 -41
DEMAND_SECTION
1 0
2 28
3 28
4 1
5 1
6 1
7 1
8 1
9 28
10 14
11 1
12 1
13 1
14 1
15 1
16 1
17 14
18 7
19 1
20 1
21 14
22 7
23 1
24 1
25 1
26 1
27 28
28 28
29 7
30 1
31 1
32 1
33 1
34 28
35 28
36 1
37 1
38 1
39 1
40 28
41 28
42 7
43 1
44 1
45 1
46 1
47 1
48 28
49 28
50 7
51 1
52 1
53 1
54 1
55 1
56 1
57 28
58 7
59 14
60 1
61 1
62 1
63 28
64 14
65 7
66 1
67 1
68 1
69 1
70 1
71 28
72 14
73 1
74 1
75 1
76 1
77 1
78 1
79 28
80 28
81 7
82 1
83 1
84 28
85 7
86 1
87 1
88 1
89 14
90 1
91 1
92 1
93 1
94 1
95 28
96 14
97 1
98 1
99 1
100 1
101 14
102 7
103 1
104 1
105 28
106 14
107 1
108 1
109 14
110 7
111 28
112 28
113 7
114 1
115 1
116 1
117 1
118 1
119 28
120 28
121 7
122 1
123 1
124 1
125 1
126 28
127 28
128 7
129 1
130 1
131 1
132 1
133 1
134 1
135 28
136 28
137 14
138 28
139 7
140 1
141 1
142 1
143 1
144 1
145 1
146 14
147 7
148 14
149 7
150 1
151 1
152 1
153 1
154 1
155 28
156 28
157 1
158 1
159 1
160 28
161 7
162 1
163 1
164 1
165 28
166 14
167 7
168 1
169 1
170 1
171 1
172 28
173 7
174 1
175 1
176 28
177 28
178 7
179 1
180 1
181 14
182 7
183 1
184 1
185 1
186 1
187 28
188 28
189 7
190 1
191 1
192 28
193 1
194 1
195 1
196 1
197 1
198 28
199 1
200 1
201 28
202 7
203 14
204 7
205 1
206 1
207 1
208 1
209 1
210 14
211 7
212 1
213 1
214 1
215 1
216 1
217 1
218 28
219 28
220 1
221 1
222 28
223 1
224 14
225 7
226 1
227 28
228 14
229 7
230 1
231 1
232 1
233 1
234 1
235 14
236 7
237 1
238 1
239 1
240 28
241 7
242 28
243 28
244 1
245 1
246 1
247 1
248 1
249 1
250 14
251 7
252 1
253 1
254 1
255 1
256 28
257 7
258 1
259 1
260 1
261 1
262 1
263 1
264 14
265 7
266 1
267 1
268 1
269 1
270 1
271 1
272 28
273 7
274 1
275 1
276 1
277 1
278 28
279 28
280 1
281 1
282 28
283 28
284 1
285 1
286 1
287 28
288 28
289 7
290 1
291 1
292 1
293 1
294 1
295 28
296 14
297 1
298 28
299 7
300 1
301 1
302 1
303 28
304 1
305 1
306 1
307 1
308 28
309 1
310 1
311 1
312 1
313 1
314 28
315 7
316 1
317 14
318 1
319 1
320 1
321 1
322 1
323 14
324 7
325 1
326 1
327 1
328 28
329 28
330 1
331 1
332 1
333 1
334 1
335 28
336 14
337 1
338 1
339 28
340 28
341 7
342 1
343 1
344 1
345 1
346 1
347 1
348 28
349 1
350 1
351 1
352 1
353 14
354 7
355 1
356 1
357 1
358 14
359 1
360 1
361 1
362 1
363 1
364 1
365 28
366 14
367 1
368 1
369 1
370 1
371 28
372 28
373 7
374 1
375 1
376 1
377 14
378 7
379 1
380 1
381 1
382 14
383 7
384 1
385 14
386 7
387 1
388 28
389 28
390 14
391 7
392 1
393 1
394 1
395 1
396 28
397 14
398 7
399 1
400 1
401 1
402 1
403 1
404 28
405 14
406 1
407 1
408 1
409 1
DEPOT_SECTION
1
-1
EOF