SDVRP instances/custom_instances/p02_27_split0.sol
408 -7 4 3 5 2 6 1 381 383 382 155 154 156 -12 13 207 205 204 208 206 203 202 33 279 278 280 277 246 243 225 223 224 -44 41 43 40 42 46 45 39 167 169 170 168 164 166 165 -67 66 68 63 69 62 65 64 260 255 261 256 262 257 258 259 339 345 340 342 344 343 341 266 268 267 -76 74 75 70 72 77 71 73 295 296 294 95 98 94 97 99 96 -78 327 331 328 332 330 329 333 147 153 148 150 151 149 152 145 146 -79 29 30 26 27 31 28 32 390 391 392 394 388 393 -82 80 81 389 282 283 284 281 285 220 218 219 217 -83 86 84 85 87 299 301 300 297 298 109 108 -115 116 112 110 114 117 113 111 322 325 323 324 326 275 273 272 274 271 276 -120 123 119 122 121 124 118 335 336 334 337 387 -125 129 130 228 133 230 232 231 127 229 233 128 226 126 227 132 131 248 247 -134 135 136 104 106 105 107 234 236 237 238 235 -139 142 144 138 137 143 141 140 372 375 370 371 373 374 338 346 269 270 265 -158 157 16 19 18 17 186 187 189 190 188 249 251 254 252 253 250 319 316 321 320 318 317 -163 159 162 161 160 50 53 54 55 51 48 52 47 49 307 312 311 309 310 308 -171 172 174 173 20 22 24 25 21 23 100 101 102 103 385 384 386 304 303 305 306 302 -179 178 177 175 176 88 91 90 93 92 89 181 363 357 360 359 355 352 354 353 356 -184 183 180 182 185 191 196 195 192 193 194 404 408 405 407 403 406 56 57 358 361 362 -199 198 197 58 61 60 59 35 36 38 37 34 395 402 401 396 398 399 400 397 -201 200 9 14 8 11 10 15 242 244 241 245 -216 210 209 215 213 214 211 212 347 348 351 350 349 376 378 380 379 377 239 240 264 263 -222 221 314 315 313 291 286 288 287 292 290 293 289 -364 366 368 369 365 367 0 





OBJ=
2250.705
BEST_KNOWN=
0.000